s td 550 8 600
b 1 23 366 370
b 2 31 197 465
b 3 37 116 292
b 4 46 244 415
b 5 32 54 183
b 6 65 157 305
b 7 76 128 512
b 8 81 82 202
b 9 85 214 428
b 10 101 419 423
b 11 104 486 569
b 12 117 137 558
b 13 128 331 512
b 14 138 238 421
b 15 80 146 246
b 16 55 147 477
b 17 149 154 195
b 18 32 266
b 19 189 458 507
b 20 149 219
b 21 82 555
b 22 220 274 515
b 23 39 229 529
b 24 187 252 330
b 25 208 209 259
b 26 71 264 556
b 27 24 266
b 28 359 447 564
b 29 360 429 453
b 30 249 364 597
b 31 384 568 577
b 32 217 405 435
b 33 212 217 435
b 34 169 410 554
b 35 10 244
b 36 8 419 423
b 37 212 562
b 38 51 303 444
b 39 51 303 550
b 40 109 143 450
b 41 349 429
b 42 228 462 496
b 43 96 228 496
b 44 197 282
b 45 124 279 282
b 46 454 489 586
b 47 164 502 592
b 48 87 306 505
b 49 472 507
b 50 472 567
b 51 325 418 510
b 52 468 512
b 53 362 390 522
b 54 278 524 596
b 55 39 379
b 56 256 379
b 57 495 530 539
b 58 162 421 533
b 59 242 534 600
b 60 320 397 543
b 61 51 192
b 62 413 555
b 63 272 564
b 64 386 568 577
b 65 199 569
b 66 386 554
b 67 169 554
b 68 169 232
b 69 232 589
b 70 173 299 594
b 71 8 127 419
b 72 10 256 567
b 73 1 75 115 322 414 519 527
b 74 322 407 414 519
b 75 102 407 414 519 580
b 76 102 224 407 414 580
b 77 102 224 446 508 580
b 78 89 190 224 446 508
b 79 89 190 446 508 549
b 80 89 190 205 508 549
b 81 2 89 205 549
b 82 205 451 508 549
b 83 89 190 224 248 446
b 84 89 224 248 323 446
b 85 89 123 323 446
b 86 89 248 311 323
b 87 224 248 323 542
b 88 190 224 284 508
b 89 102 285 446 508 580
b 90 285 314 508 580
b 91 224 348 407 414 580
b 92 224 348 414 509
b 93 102 407 491 519 580
b 94 102 475 491 519
b 95 102 475 481 519
b 96 102 313 475 481
b 97 182 313 481
b 98 18 182
b 99 18 225
b 100 313 339 475 481
b 101 343 475 481 519
b 102 350 407 491 580
b 103 1 75 115 322 519 527 584
b 104 1 75 115 519 527 584 593
b 105 1 433 527 584 593
b 106 1 3 433 593
b 107 417 433 527 584 593
b 108 163 417 433 593
b 109 265 417 433 527
b 110 75 115 153 519 584 593
b 111 35 153 519 584
b 112 13 35 519 584
b 113 13 158 519 584
b 114 13 35 177 584
b 115 13 35 408 519
b 116 64 75 115 153 593
b 117 64 75 115 457
b 118 75 115 420 457
b 119 48 115 420 457
b 120 64 75 153 553 593
b 121 64 75 153 316 553
b 122 64 92 153 316 553
b 123 92 153 316 494 553
b 124 92 153 494 521 553
b 125 153 263 494 521 553
b 126 72 153 263 521 553
b 127 70 72 153 521
b 128 72 151 153 263 553
b 129 72 151 153 430
b 130 72 153 352 430
b 131 72 263 500 521
b 132 262 263 500 521
b 133 92 494 521 548
b 134 92 494 499 548
b 135 64 75 316 516 553
b 136 64 230 316 516
b 137 75 373 516 553
b 138 1 75 115 414 416 425 527
b 139 66 115 142 186 416 425 463
b 140 66 115 142 186 372 416 463
b 141 115 142 186 312 372 463
b 142 142 186 312 369 372 463
b 143 142 161 186 312 369 372
b 144 142 161 171 312 369 372
b 145 142 161 167 171 372 485
b 146 142 167 308 372 485
b 147 142 167 269 308 372
b 148 142 167 204 269 308
b 149 142 204 269 424
b 150 142 204 403 424
b 151 142 385 403 424
b 152 207 385 403 424
b 153 6 207 385 424
b 154 207 260 403 424
b 155 207 385 403 541
b 156 269 308 372 503
b 157 161 167 171 286 485
b 158 161 167 286 485 493
b 159 167 286 426 485 493
b 160 86 167 426 485 493
b 161 86 167 176 426 485
b 162 86 176 426 485 488
b 163 11 86 176 426 488
b 164 11 426 461 488
b 165 86 167 176 193 485
b 166 167 175 193 485
b 167 86 176 193 438
b 168 86 167 426 469 493
b 169 167 426 469 493 517
b 170 56 167 469 493 517
b 171 56 105 167 469
b 172 277 426 469 493 517
b 173 277 280 469 517
b 174 161 286 460 493
b 175 161 171 286 394
b 176 68 171 286 394
b 177 142 161 186 369 581
b 178 90 186 312 369 463
b 179 90 186 206 369
b 180 115 312 463 498
b 181 115 223 312 498
b 182 66 142 186 425 463 578
b 183 66 142 211 425 578
b 184 142 211 425 565 578
b 185 106 211 425 565 578
b 186 106 130 211 565
b 187 106 396 565 578
b 188 106 425 526 578
b 189 142 211 226 565 578
b 190 142 226 578 579
b 191 186 329 425 463 578
b 192 293 329 425 463
b 193 186 329 492 578
b 194 186 329 358 492
b 195 1 75 140 414 416 425 527
b 196 1 140 141 527
b 197 1 52 140 141
b 198 1 75 113 140 425
b 199 113 120 140 425
b 200 75 113 425 575
b 201 19 182 313
b 202 24 173 308
b 203 25 126 245
b 204 40 48 115
b 205 55 477 494
b 206 61 375 538
b 207 71 341 556
b 208 77 161 460
b 209 80 246 573
b 210 246 478 573
b 211 83 168 362
b 212 84 322 407
b 213 96 496 575
b 214 98 413 571
b 215 109 143 501
b 216 114 142 445
b 217 116 292 293
b 218 118 121 172
b 219 124 279 457
b 220 137 221 558
b 221 129 143 501
b 222 129 381 406 501
b 223 144 436 460
b 224 148 322 584
b 225 157 305 321
b 226 162 236 421
b 227 164 525 592
b 228 92 165 316
b 229 166 174 525
b 230 173 299 308
b 231 174 521 525
b 232 181 422 504
b 233 92 187 330
b 234 192 356 595
b 235 196 316 482
b 236 199 409 540
b 237 200 499 548
b 238 203 283 345
b 239 7 208 209
b 240 7 209 297
b 241 75 214 428
b 242 219 294 402
b 243 234 474 506
b 244 168 474 506
b 245 168 362 474
b 246 198 237 239 536
b 247 59 238 421
b 248 242 548 600
b 249 48 249 334
b 250 13 158 254
b 251 256 321 567
b 252 305 321 567
b 253 321 567
b 254 155 258 321
b 255 155 227 258
b 256 272 332 370
b 257 274 445 515
b 258 64 279 457
b 259 292 293 329
b 260 299 308 485
b 261 320 397 407
b 262 324 425 575
b 263 271 325 418
b 264 92 330 336
b 265 36 333 540
b 266 52 140 337
b 267 258 340 504
b 268 341 503 556
b 269 342 344 488
b 270 171 312 349
b 271 362 390 474
b 272 47 366 370
b 273 47 332 370
b 274 231 275 376
b 275 94 380 588
b 276 381 395 501
b 277 21 395 501
b 278 21 28 395
b 279 213 382 479
b 280 213 332 479
b 281 47 213 332
b 282 47 332
b 283 47 353
b 284 353 355 442
b 285 390 474 562
b 286 201 302 391 466
b 287 201 302 319
b 288 283 302 319
b 289 28 395 480
b 290 28 471 480
b 291 28 480
b 292 28 125
b 293 125 127 399
b 294 397 407 414
b 295 223 413 571
b 296 186 271 418
b 297 127 245 419
b 298 59 236 421
b 299 422 459 504
b 300 75 428 575
b 301 432 436 493
b 302 436 460 493
b 303 36 392 441 443
b 304 36 392 540
b 305 378 392 540
b 306 142 445 515
b 307 454 481 586
b 308 335 467 537
b 309 33 440 468
b 310 297 473 595
b 311 439 474 562
b 312 312 476 571
b 313 477 482 494
b 314 301 478 573
b 315 316 482 494
b 316 495 539 553
b 317 113 496 575
b 318 56 514 563
b 319 142 515 581
b 320 373 539 553
b 321 308 503 556
b 322 111 221 558
b 323 56 493 563
b 324 223 312 571
b 325 152 301 573
b 326 27 194 270 574
b 327 449 518 583
b 328 343 481 586
b 329 78 159 590
b 330 262 525 592
b 331 297 356 595
b 332 278 329 596
b 333 521 548 600
b 334 9 281 442 598
b 335 215 281 442 598
b 336 12 176 193 438
b 337 14 66 372 416
b 338 20 136 268 528
b 339 22 43 346 545
b 340 26 150 310 377
b 341 27 159 194 270
b 342 159 194 270 464
b 343 29 180 241 295
b 344 180 241 295 587
b 345 180 241 286 587
b 346 241 286 426
b 347 1 34 52 141
b 348 42 45 240 296
b 349 45 87 240 296
b 350 7 30 297 589
b 351 30 250 297 355 363 484 551 589
b 352 132 172 250 355 365 484 551 589
b 353 132 172 250 365 383 551 589
b 354 33 132 365 383 589
b 355 33 365 383 504 589
b 356 33 296 383 504 589
b 357 231 296 383 504 589
b 358 231 296 306 383
b 359 87 296 306 383
b 360 231 317 504 589
b 361 33 296 440 504
b 362 33 365 459 504
b 363 225 365 459
b 364 121 172 250 383 551
b 365 79 121 250 383 551
b 366 79 110 121 551
b 367 79 250 347 551
b 368 79 121 383 532
b 369 38 132 172 355 365 484 544 547
b 370 38 245 355 365 484 544 547
b 371 221 245 355 484 544 547
b 372 221 287 355 484 544 547
b 373 221 287 355 484 570
b 374 221 287 355 546 570
b 375 178 221 355 546 570
b 376 41 178 546 570
b 377 111 178 221 546
b 378 287 546 561 570
b 379 289 355 484 570
b 380 221 287 470 544 547
b 381 73 221 287 470
b 382 287 291 470 544 547
b 383 38 132 172 338 484 528 544 547
b 384 63 172 338 484 528 544 547
b 385 63 172 338 401 484 528 544
b 386 63 191 401 484 544
b 387 191 315 401 484
b 388 63 338 401 434 528
b 389 338 389 434 528
b 390 401 434 528 576
b 391 63 255 338 544 547
b 392 63 255 338 398
b 393 38 132 172 216 338 528
b 394 132 172 216 268 528
b 395 136 172 268 528
b 396 132 216 268 351
b 397 132 188 216 351
b 398 38 338 354 547
b 399 30 133 250 297 355 363 484 551
b 400 30 133 250 297 301 355 484 551
b 401 107 133 250 301 355 484 551
b 402 107 133 301 355 411 484 551
b 403 107 133 257 301 355 411 484
b 404 133 257 301 355 357 411 484
b 405 43 257 357 411 484
b 406 43 69 257 357
b 407 43 357 411 484 545
b 408 43 346 411 545
b 409 133 257 301 355 357 452
b 410 133 301 355 357 402 452
b 411 88 133 301 402 452
b 412 88 301 309 402
b 413 88 388 402 452
b 414 294 355 357 402 452
b 415 294 355 357 374 452
b 416 253 294 357 374 452
b 417 185 253 294 374
b 418 253 357 374 456
b 419 294 355 374 598
b 420 294 355 442 598
b 421 215 294 442 598
b 422 107 257 411 427
b 423 257 304 411 427
b 424 97 107 411 551
b 425 30 133 297 301 552
b 426 30 247 297 301 552
b 427 93 247 297 301 552
b 428 93 247 301 487 552
b 429 93 239 301 487
b 430 93 239 273 301
b 431 44 239 273 301
b 432 93 239 487 536
b 433 93 198 239 536
b 434 93 247 297 356
b 435 30 135 247 297 552
b 436 30 135 160 552
b 437 30 133 552 572
b 438 250 363 557 589
b 439 45 87 296 383
b 440 50 108 300 307
b 441 57 67 221 267
b 442 60 68 171 394
b 443 62 132 351 404
b 444 132 188 351 404
b 445 67 221 267 399
b 446 221 267 399 523
b 447 127 221 399 523
b 448 127 221 245
b 449 231 261 306 383
b 450 91 115 235 498
b 451 115 223 235 498
b 452 94 327 566 588
b 453 327 412 566 588
b 454 100 280 469 517
b 455 108 300 307 513
b 456 300 307 437 513
b 457 298 300 437 513 538
b 458 236 298 437 513 538 559
b 459 4 236 298 513 538 559
b 460 4 236 298 377 538 559
b 461 4 53 298 377 538 559
b 462 4 15 53 298 377 538
b 463 4 15 53 245 377 538
b 464 4 15 245 538 582
b 465 4 15 245 449 582
b 466 4 245 365 449 511 582
b 467 38 245 365 449 511
b 468 38 449 511 518
b 469 38 99 511 518
b 470 4 365 439 511 582
b 471 184 365 439 511 582
b 472 122 184 365 439 511
b 473 58 122 184 439 511
b 474 58 122 439 588
b 475 58 412 439 588
b 476 58 122 318 511
b 477 58 184 367 511
b 478 4 112 538 582
b 479 15 53 245 377 497
b 480 53 119 245 377 497
b 481 53 74 119 377 497
b 482 74 119 377 560
b 483 53 74 310 377
b 484 74 150 310 377
b 485 15 53 298 375 538
b 486 15 53 298 375 393
b 487 5 15 375 393
b 488 95 298 375 393
b 489 59 236 377 559
b 490 4 236 328 513
b 491 17 236 437 559
b 492 298 300 437 591
b 493 119 126 245 497
b 494 131 153 352 430
b 495 134 350 407 491
b 496 139 142 226 579
b 497 145 378 431 455
b 498 152 273 301 361
b 499 44 273 301 361
b 500 74 119 156 497
b 501 78 159 194 464
b 502 78 194 464 531
b 503 78 194 455 531
b 504 194 378 455 531
b 505 378 431 455 531
b 506 194 378 537
b 507 140 170 414 416
b 508 179 255 338 398
b 509 103 210 371 457
b 510 103 371 457
b 511 75 218 373 516
b 512 222 291 470 547
b 513 227 258 275 317
b 514 231 258 275 317
b 515 233 335 537 562
b 516 243 483 490 511
b 517 4 251 328 513
b 518 231 258 317 504
b 519 186 271 358 492
b 520 276 319 326 535
b 521 283 319 326 535
b 522 278 293 329 425
b 523 283 319 345 535
b 524 49 319 345 535
b 525 49 345 371 535
b 526 103 345 371
b 527 103 457 599
b 528 16 368 457 599
b 529 334 368 457 599
b 530 250 288 363 557
b 531 290 304 411 427
b 532 327 409 412 588
b 533 48 334 368 457
b 534 48 368 420 457
b 535 335 400 537 562
b 536 400 537 540 562
b 537 378 400 537 540
b 538 409 540 562
b 539 409 439 562
b 540 92 336 499 548
b 541 11 344 461 488
b 542 224 248 387 542
b 543 409 412 439 588
b 544 269 372 448 520
b 545 269 372 503 520
b 546 483 490 511 518
b 547 99 490 511 518
b 548 262 521 525 585
b 549 262 500 521 585
b 550 589
1 272
2 44
3 217
4 35
5 18
6 225
7 13
8 21
9 241
10 36
11 65
12 220
13 52
14 247
15 209
16 205
17 20
18 27
19 49
20 242
21 62
22 257
23 55
24 233
25 239
26 207
27 202
28 63
29 41
30 249
31 64
32 33
33 37
34 67
35 72
36 71
37 539
38 39
39 61
40 215
41 270
42 43
43 213
44 45
45 219
46 307
47 227
48 359
49 50
50 253
51 263
52 309
53 271
54 332
55 56
56 251
57 316
58 226
59 248
60 261
61 234
62 295
63 256
64 66
65 236
66 67
67 68
68 69
69 550
70 230
71 297
72 251
73 74
73 103
73 138
74 212
74 294
74 75
75 76
75 93
76 77
76 91
77 78
77 89
78 79
78 83
78 88
79 80
80 81
80 82
83 84
84 85
84 86
84 87
87 542
89 90
91 92
93 94
93 102
94 95
95 96
95 101
96 97
96 100
97 201
97 98
98 99
99 363
101 328
102 495
103 224
103 104
104 105
104 110
105 106
105 107
107 108
107 109
110 111
110 116
111 112
112 113
112 114
112 115
113 250
116 117
116 120
117 258
117 118
118 119
119 204
119 534
120 121
121 122
121 135
122 228
122 123
123 315
123 124
124 125
124 133
125 126
126 127
126 128
126 131
128 129
129 130
130 494
131 132
132 549
133 333
133 134
134 237
134 540
135 136
135 137
137 320
137 511
138 139
138 195
139 140
139 182
140 337
140 141
141 142
141 180
142 143
142 178
143 144
143 177
144 270
144 145
145 146
145 157
146 260
146 147
147 148
147 156
148 149
149 150
150 151
151 152
152 153
152 154
152 155
156 321
156 545
157 158
157 175
158 159
158 174
159 346
159 160
160 161
160 168
161 162
161 165
162 163
163 164
164 541
165 166
165 167
167 336
168 169
169 170
169 172
170 323
170 171
172 173
173 454
174 208
174 302
175 176
176 442
177 319
178 179
180 181
181 324
181 451
182 183
182 191
183 184
184 185
184 189
185 186
185 187
185 188
189 190
190 496
191 192
191 193
192 259
192 522
193 194
194 519
195 507
195 196
195 198
196 197
197 266
197 347
198 199
198 200
200 262
200 300
200 317
202 230
203 493
205 313
206 485
207 268
209 210
210 314
211 245
213 317
214 295
215 221
216 306
217 259
218 364
219 258
220 322
221 222
222 276
223 302
225 252
226 298
227 330
229 231
230 260
231 548
232 299
233 264
234 331
235 315
236 538
238 523
239 240
240 350
241 300
242 414
243 244
244 245
245 271
246 433
247 298
248 333
249 533
251 253
252 253
253 254
254 255
255 513
256 273
257 306
261 294
263 296
264 540
265 304
267 518
268 321
269 541
271 285
272 273
273 282
274 514
275 452
276 277
277 278
278 289
279 280
280 281
281 282
282 283
283 284
284 420
285 311
286 287
287 288
288 523
289 291
290 291
291 292
292 293
293 447
295 324
296 519
297 448
298 489
299 362
301 302
303 304
304 305
305 537
306 319
307 328
308 535
309 361
310 331
311 539
312 324
313 315
314 325
316 320
318 323
322 377
325 498
326 341
327 468
329 501
330 548
331 434
332 522
334 335
335 421
338 395
339 408
340 484
341 342
342 501
343 344
344 345
345 346
348 349
349 439
350 550
350 351
351 352
351 399
351 438
352 353
352 369
353 354
353 364
354 355
355 356
355 362
356 357
356 361
357 358
357 360
358 449
358 359
359 439
360 518
362 363
364 365
365 366
365 367
365 368
369 370
369 383
370 467
370 371
371 448
371 372
372 373
372 380
373 374
373 379
374 375
374 378
375 376
375 377
380 381
380 382
382 512
383 384
383 393
383 398
384 385
384 391
385 386
385 388
386 387
388 389
388 390
391 392
392 508
393 394
394 395
394 396
396 397
397 444
399 400
400 401
400 425
401 402
402 403
402 424
403 404
403 422
404 405
404 409
405 406
405 407
407 408
409 410
410 411
410 414
411 412
411 413
414 415
415 416
415 419
416 417
416 418
419 420
420 421
422 423
423 531
425 426
425 437
426 427
426 435
427 428
427 434
428 429
429 430
429 432
430 431
431 499
432 433
435 436
438 530
440 455
441 445
443 444
445 446
446 447
447 448
450 451
452 453
453 532
455 456
456 457
457 492
457 458
458 491
458 459
459 490
459 460
460 489
460 461
461 462
462 485
462 463
463 479
463 464
464 478
464 465
465 466
466 470
466 467
467 468
468 469
469 547
470 471
471 472
472 473
473 474
473 476
473 477
474 475
475 543
479 480
480 493
480 481
481 500
481 482
481 483
483 484
485 486
486 487
486 488
490 517
497 505
498 499
501 502
502 503
503 504
504 506
504 505
506 537
509 526
509 527
509 510
513 514
514 518
515 535
516 546
520 521
521 523
523 524
524 525
525 526
527 528
528 529
529 533
532 543
533 534
535 536
536 537
536 538
538 539
539 543
544 545
546 547
548 549
